p cnf 37 102
a 12 6 0
e 1 2 3 4 5 7 8 9 10 11 13 14 15 16 17 18 19 20 21 22 23 24 25 26 27 28 29 30 31 32 33 34 35 36 37 0
3 2 0
3 -1 0
-2 1 -3 0
4 1 0
4 3 0
-1 -3 -4 0
-5 -6 -7 0
5 6 -7 0
-5 6 7 0
5 -6 7 0
5 7 -8 0
-5 -7 -8 0
5 -7 8 0
-5 7 8 0
9 4 0
9 -8 0
-4 8 -9 0
9 -10 0
-9 -10 0
7 -11 -12 0
-7 11 -12 0
7 11 12 0
-7 -11 12 0
-6 5 -14 0
6 -5 -14 0
-6 -5 14 0
6 5 14 0
15 13 0
15 -14 0
-13 14 -15 0
-16 12 0
-16 15 0
-12 -15 16 0
17 -10 0
17 -16 0
10 16 -17 0
-19 -11 0
-19 -18 0
11 18 19 0
-20 2 -21 0
20 -2 -21 0
-20 -2 21 0
20 2 21 0
14 -21 -22 0
-14 21 -22 0
14 21 22 0
-14 -21 22 0
23 -5 0
23 11 0
5 -11 -23 0
24 -23 0
24 20 0
23 -20 -24 0
25 -22 0
25 24 0
22 -24 -25 0
-26 6 0
-26 -5 0
-6 5 26 0
27 20 0
27 -26 0
-20 26 -27 0
28 -25 0
28 -27 0
25 27 -28 0
29 1 0
29 20 0
-1 -20 -29 0
30 -8 0
30 -29 0
8 29 -30 0
-31 -20 0
-31 -30 0
20 30 31 0
-32 28 0
-32 31 0
-28 -31 32 0
33 19 0
33 -32 0
-19 32 -33 0
34 13 0
34 5 0
-13 -5 -34 0
35 -34 0
35 14 0
34 -14 -35 0
-36 33 0
-36 -35 0
-33 35 36 0
-37 -17 0
-37 -36 0
17 36 37 0
24 34 1 -29 0
-23 18 -12 -22 24 -3 0
30 33 -15 0
-37 -17 29 -16 24 15 0
-25 -1 18 0
16 -8 6 0
-1 -37 -23 22 30 -21 0
24 13 37 19 6 0
-20 9 -33 -29 -2 0
37 0
